c description: Random 3-CNF over 15 variables and 45 clauses
p cnf 15 45
-1 6 9 0
-3 8 10 0
-1 -13 15 0
-1 8 14 0
-1 -11 15 0
-8 -11 -14 0
-3 5 10 0
4 5 -6 0
-1 5 -10 0
1 -4 -5 0
-1 11 15 0
-7 8 15 0
1 -5 13 0
-2 6 15 0
-1 -2 4 0
1 -8 15 0
-6 13 15 0
-2 4 5 0
-3 9 13 0
-2 10 -13 0
3 -7 -14 0
3 5 11 0
6 9 -15 0
4 8 -10 0
-2 9 -13 0
4 6 -13 0
3 7 -8 0
1 -7 -14 0
-5 13 -14 0
-4 11 12 0
8 -10 -13 0
-5 -9 -13 0
5 -9 -10 0
-3 10 14 0
-1 -6 -11 0
3 -8 -14 0
-6 8 15 0
-7 -14 -15 0
-5 7 -10 0
4 10 -11 0
-6 -7 -13 0
7 9 -11 0
5 -10 14 0
3 13 -14 0
-3 5 -15 0